p cnf 1381
-23 -429
-24 -432
-25 -435
-26 -438
-27 -441
-28 -444
-29 -447
-30 -450
-31 -453
-32 -456
-33 -459
-34 -462
-35 -465
-36 -468
-37 -471
-38 -474
-39 -477
-40 -480
-41 -483
-42 -486
-43 -489
-44 -492
-45 493
-46 494
-47 495
-48 496
-49 497
-50 498
-51 499
-52 500
-53 -24
-53 -25
24 25 53
-54 -26
-54 -27
26 27 54
-55 -28
-55 -29
28 29 55
-56 -30
-56 -31
30 31 56
-57 -32
-57 -33
32 33 57
-58 -34
-58 -35
34 35 58
-59 -36
-59 -37
36 37 59
-60 -38
-60 -39
38 39 60
-61 -40
-61 -41
40 41 61
-62 -42
-62 -43
42 43 62
-63 -44
-63 -45
44 45 63
-64 -46
-64 -47
46 47 64
-65 -48
-65 -49
48 49 65
-66 -50
-66 -51
50 51 66
-67 53
-67 54
-53 -54 67
-68 55
-68 56
-55 -56 68
-69 57
-69 58
-57 -58 69
-70 59
-70 60
-59 -60 70
-71 61
-71 62
-61 -62 71
-72 63
-72 64
-63 -64 72
-73 65
-73 66
-65 -66 73
-74 67
-74 68
-67 -68 74
-75 69
-75 70
-69 -70 75
-76 71
-76 72
-71 -72 76
-77 -52
-77 73
52 -73 77
-78 74
-78 75
-74 -75 78
-79 76
-79 77
-76 -77 79
-80 78
-80 79
-78 -79 80
-81 -23
-81 24
23 -24 81
-82 23
-82 -24
-23 24 82
-83 -81
-83 -82
81 82 83
-84 23
-84 24
-23 -24 84
-85 -23
-85 -83
23 83 85
-86 23
-86 83
-23 -83 86
-87 -85
-87 -86
85 86 87
-88 23
-88 -83
-23 83 88
-89 -84
-89 -88
84 88 89
-90 -24
-90 25
24 -25 90
-91 24
-91 -25
-24 25 91
-92 -90
-92 -91
90 91 92
-93 24
-93 25
-24 -25 93
-94 89
-94 -92
-89 92 94
-95 -89
-95 92
89 -92 95
-96 -94
-96 -95
94 95 96
-97 -89
-97 -92
89 92 97
-98 -93
-98 -97
93 97 98
-99 -25
-99 26
25 -26 99
-100 25
-100 -26
-25 26 100
-101 -99
-101 -100
99 100 101
-102 25
-102 26
-25 -26 102
-103 98
-103 -101
-98 101 103
-104 -98
-104 101
98 -101 104
-105 -103
-105 -104
103 104 105
-106 -98
-106 -101
98 101 106
-107 -102
-107 -106
102 106 107
-108 -26
-108 27
26 -27 108
-109 26
-109 -27
-26 27 109
-110 -108
-110 -109
108 109 110
-111 26
-111 27
-26 -27 111
-112 107
-112 -110
-107 110 112
-113 -107
-113 110
107 -110 113
-114 -112
-114 -113
112 113 114
-115 -107
-115 -110
107 110 115
-116 -111
-116 -115
111 115 116
-117 -27
-117 28
27 -28 117
-118 27
-118 -28
-27 28 118
-119 -117
-119 -118
117 118 119
-120 27
-120 28
-27 -28 120
-121 116
-121 -119
-116 119 121
-122 -116
-122 119
116 -119 122
-123 -121
-123 -122
121 122 123
-124 -116
-124 -119
116 119 124
-125 -120
-125 -124
120 124 125
-126 -28
-126 29
28 -29 126
-127 28
-127 -29
-28 29 127
-128 -126
-128 -127
126 127 128
-129 28
-129 29
-28 -29 129
-130 125
-130 -128
-125 128 130
-131 -125
-131 128
125 -128 131
-132 -130
-132 -131
130 131 132
-133 -125
-133 -128
125 128 133
-134 -129
-134 -133
129 133 134
-135 -29
-135 30
29 -30 135
-136 29
-136 -30
-29 30 136
-137 -135
-137 -136
135 136 137
-138 29
-138 30
-29 -30 138
-139 134
-139 -137
-134 137 139
-140 -134
-140 137
134 -137 140
-141 -139
-141 -140
139 140 141
-142 -134
-142 -137
134 137 142
-143 -138
-143 -142
138 142 143
-144 -30
-144 31
30 -31 144
-145 30
-145 -31
-30 31 145
-146 -144
-146 -145
144 145 146
-147 30
-147 31
-30 -31 147
-148 143
-148 -146
-143 146 148
-149 -143
-149 146
143 -146 149
-150 -148
-150 -149
148 149 150
-151 -143
-151 -146
143 146 151
-152 -147
-152 -151
147 151 152
-153 -31
-153 32
31 -32 153
-154 31
-154 -32
-31 32 154
-155 -153
-155 -154
153 154 155
-156 31
-156 32
-31 -32 156
-157 152
-157 -155
-152 155 157
-158 -152
-158 155
152 -155 158
-159 -157
-159 -158
157 158 159
-160 -152
-160 -155
152 155 160
-161 -156
-161 -160
156 160 161
-162 -32
-162 33
32 -33 162
-163 32
-163 -33
-32 33 163
-164 -162
-164 -163
162 163 164
-165 32
-165 33
-32 -33 165
-166 161
-166 -164
-161 164 166
-167 -161
-167 164
161 -164 167
-168 -166
-168 -167
166 167 168
-169 -161
-169 -164
161 164 169
-170 -165
-170 -169
165 169 170
-171 -33
-171 34
33 -34 171
-172 33
-172 -34
-33 34 172
-173 -171
-173 -172
171 172 173
-174 33
-174 34
-33 -34 174
-175 170
-175 -173
-170 173 175
-176 -170
-176 173
170 -173 176
-177 -175
-177 -176
175 176 177
-178 -170
-178 -173
170 173 178
-179 -174
-179 -178
174 178 179
-180 -34
-180 35
34 -35 180
-181 34
-181 -35
-34 35 181
-182 -180
-182 -181
180 181 182
-183 34
-183 35
-34 -35 183
-184 179
-184 -182
-179 182 184
-185 -179
-185 182
179 -182 185
-186 -184
-186 -185
184 185 186
-187 -179
-187 -182
179 182 187
-188 -183
-188 -187
183 187 188
-189 -35
-189 36
35 -36 189
-190 35
-190 -36
-35 36 190
-191 -189
-191 -190
189 190 191
-192 35
-192 36
-35 -36 192
-193 188
-193 -191
-188 191 193
-194 -188
-194 191
188 -191 194
-195 -193
-195 -194
193 194 195
-196 -188
-196 -191
188 191 196
-197 -192
-197 -196
192 196 197
-198 -36
-198 37
36 -37 198
-199 36
-199 -37
-36 37 199
-200 -198
-200 -199
198 199 200
-201 36
-201 37
-36 -37 201
-202 197
-202 -200
-197 200 202
-203 -197
-203 200
197 -200 203
-204 -202
-204 -203
202 203 204
-205 -197
-205 -200
197 200 205
-206 -201
-206 -205
201 205 206
-207 -37
-207 38
37 -38 207
-208 37
-208 -38
-37 38 208
-209 -207
-209 -208
207 208 209
-210 37
-210 38
-37 -38 210
-211 206
-211 -209
-206 209 211
-212 -206
-212 209
206 -209 212
-213 -211
-213 -212
211 212 213
-214 -206
-214 -209
206 209 214
-215 -210
-215 -214
210 214 215
-216 -38
-216 39
38 -39 216
-217 38
-217 -39
-38 39 217
-218 -216
-218 -217
216 217 218
-219 38
-219 39
-38 -39 219
-220 215
-220 -218
-215 218 220
-221 -215
-221 218
215 -218 221
-222 -220
-222 -221
220 221 222
-223 -215
-223 -218
215 218 223
-224 -219
-224 -223
219 223 224
-225 -39
-225 40
39 -40 225
-226 39
-226 -40
-39 40 226
-227 -225
-227 -226
225 226 227
-228 39
-228 40
-39 -40 228
-229 224
-229 -227
-224 227 229
-230 -224
-230 227
224 -227 230
-231 -229
-231 -230
229 230 231
-232 -224
-232 -227
224 227 232
-233 -228
-233 -232
228 232 233
-234 -40
-234 41
40 -41 234
-235 40
-235 -41
-40 41 235
-236 -234
-236 -235
234 235 236
-237 40
-237 41
-40 -41 237
-238 233
-238 -236
-233 236 238
-239 -233
-239 236
233 -236 239
-240 -238
-240 -239
238 239 240
-241 -233
-241 -236
233 236 241
-242 -237
-242 -241
237 241 242
-243 -41
-243 42
41 -42 243
-244 41
-244 -42
-41 42 244
-245 -243
-245 -244
243 244 245
-246 41
-246 42
-41 -42 246
-247 242
-247 -245
-242 245 247
-248 -242
-248 245
242 -245 248
-249 -247
-249 -248
247 248 249
-250 -242
-250 -245
242 245 250
-251 -246
-251 -250
246 250 251
-252 -42
-252 43
42 -43 252
-253 42
-253 -43
-42 43 253
-254 -252
-254 -253
252 253 254
-255 42
-255 43
-42 -43 255
-256 251
-256 -254
-251 254 256
-257 -251
-257 254
251 -254 257
-258 -256
-258 -257
256 257 258
-259 -251
-259 -254
251 254 259
-260 -255
-260 -259
255 259 260
-261 -43
-261 44
43 -44 261
-262 43
-262 -44
-43 44 262
-263 -261
-263 -262
261 262 263
-264 43
-264 44
-43 -44 264
-265 260
-265 -263
-260 263 265
-266 -260
-266 263
260 -263 266
-267 -265
-267 -266
265 266 267
-268 -260
-268 -263
260 263 268
-269 -264
-269 -268
264 268 269
-270 -44
-270 45
44 -45 270
-271 44
-271 -45
-44 45 271
-272 -270
-272 -271
270 271 272
-273 44
-273 45
-44 -45 273
-274 269
-274 -272
-269 272 274
-275 -269
-275 272
269 -272 275
-276 -274
-276 -275
274 275 276
-277 -269
-277 -272
269 272 277
-278 -273
-278 -277
273 277 278
-279 -45
-279 46
45 -46 279
-280 45
-280 -46
-45 46 280
-281 -279
-281 -280
279 280 281
-282 45
-282 46
-45 -46 282
-283 278
-283 -281
-278 281 283
-284 -278
-284 281
278 -281 284
-285 -283
-285 -284
283 284 285
-286 -278
-286 -281
278 281 286
-287 -282
-287 -286
282 286 287
-288 -46
-288 47
46 -47 288
-289 46
-289 -47
-46 47 289
-290 -288
-290 -289
288 289 290
-291 46
-291 47
-46 -47 291
-292 287
-292 -290
-287 290 292
-293 -287
-293 290
287 -290 293
-294 -292
-294 -293
292 293 294
-295 -287
-295 -290
287 290 295
-296 -291
-296 -295
291 295 296
-297 -47
-297 48
47 -48 297
-298 47
-298 -48
-47 48 298
-299 -297
-299 -298
297 298 299
-300 47
-300 48
-47 -48 300
-301 296
-301 -299
-296 299 301
-302 -296
-302 299
296 -299 302
-303 -301
-303 -302
301 302 303
-304 -296
-304 -299
296 299 304
-305 -300
-305 -304
300 304 305
-306 -48
-306 49
48 -49 306
-307 48
-307 -49
-48 49 307
-308 -306
-308 -307
306 307 308
-309 48
-309 49
-48 -49 309
-310 305
-310 -308
-305 308 310
-311 -305
-311 308
305 -308 311
-312 -310
-312 -311
310 311 312
-313 -305
-313 -308
305 308 313
-314 -309
-314 -313
309 313 314
-315 -49
-315 50
49 -50 315
-316 49
-316 -50
-49 50 316
-317 -315
-317 -316
315 316 317
-318 49
-318 50
-49 -50 318
-319 314
-319 -317
-314 317 319
-320 -314
-320 317
314 -317 320
-321 -319
-321 -320
319 320 321
-322 -314
-322 -317
314 317 322
-323 -318
-323 -322
318 322 323
-324 -50
-324 51
50 -51 324
-325 50
-325 -51
-50 51 325
-326 -324
-326 -325
324 325 326
-327 50
-327 51
-50 -51 327
-328 323
-328 -326
-323 326 328
-329 -323
-329 326
323 -326 329
-330 -328
-330 -329
328 329 330
-331 -323
-331 -326
323 326 331
-332 -327
-332 -331
327 331 332
-333 -51
-333 52
51 -52 333
-334 51
-334 -52
-51 52 334
-335 -333
-335 -334
333 334 335
-336 51
-336 52
-51 -52 336
-337 332
-337 -335
-332 335 337
-338 -332
-338 335
332 -335 338
-339 -337
-339 -338
337 338 339
-340 -332
-340 -335
332 335 340
-341 -336
-341 -340
336 340 341
-342 23
-342 -87
-23 87 342
-343 -23
-343 25
23 -25 343
-344 -342
-344 -343
342 343 344
-345 23
-345 -96
-23 96 345
-346 -23
-346 26
23 -26 346
-347 -345
-347 -346
345 346 347
-348 23
-348 -105
-23 105 348
-349 -23
-349 27
23 -27 349
-350 -348
-350 -349
348 349 350
-351 23
-351 -114
-23 114 351
-352 -23
-352 28
23 -28 352
-353 -351
-353 -352
351 352 353
-354 23
-354 -123
-23 123 354
-355 -23
-355 29
23 -29 355
-356 -354
-356 -355
354 355 356
-357 23
-357 -132
-23 132 357
-358 -23
-358 30
23 -30 358
-359 -357
-359 -358
357 358 359
-360 23
-360 -141
-23 141 360
-361 -23
-361 31
23 -31 361
-362 -360
-362 -361
360 361 362
-363 23
-363 -150
-23 150 363
-364 -23
-364 32
23 -32 364
-365 -363
-365 -364
363 364 365
-366 23
-366 -159
-23 159 366
-367 -23
-367 33
23 -33 367
-368 -366
-368 -367
366 367 368
-369 23
-369 -168
-23 168 369
-370 -23
-370 34
23 -34 370
-371 -369
-371 -370
369 370 371
-372 23
-372 -177
-23 177 372
-373 -23
-373 35
23 -35 373
-374 -372
-374 -373
372 373 374
-375 23
-375 -186
-23 186 375
-376 -23
-376 36
23 -36 376
-377 -375
-377 -376
375 376 377
-378 23
-378 -195
-23 195 378
-379 -23
-379 37
23 -37 379
-380 -378
-380 -379
378 379 380
-381 23
-381 -204
-23 204 381
-382 -23
-382 38
23 -38 382
-383 -381
-383 -382
381 382 383
-384 23
-384 -213
-23 213 384
-385 -23
-385 39
23 -39 385
-386 -384
-386 -385
384 385 386
-387 23
-387 -222
-23 222 387
-388 -23
-388 40
23 -40 388
-389 -387
-389 -388
387 388 389
-390 23
-390 -231
-23 231 390
-391 -23
-391 41
23 -41 391
-392 -390
-392 -391
390 391 392
-393 23
-393 -240
-23 240 393
-394 -23
-394 42
23 -42 394
-395 -393
-395 -394
393 394 395
-396 23
-396 -249
-23 249 396
-397 -23
-397 43
23 -43 397
-398 -396
-398 -397
396 397 398
-399 23
-399 -258
-23 258 399
-400 -23
-400 44
23 -44 400
-401 -399
-401 -400
399 400 401
-402 23
-402 -267
-23 267 402
-403 -23
-403 45
23 -45 403
-404 -402
-404 -403
402 403 404
-405 23
-405 -276
-23 276 405
-406 -23
-406 46
23 -46 406
-407 -405
-407 -406
405 406 407
-408 23
-408 -285
-23 285 408
-409 -23
-409 47
23 -47 409
-410 -408
-410 -409
408 409 410
-411 23
-411 -294
-23 294 411
-412 -23
-412 48
23 -48 412
-413 -411
-413 -412
411 412 413
-414 23
-414 -303
-23 303 414
-415 -23
-415 49
23 -49 415
-416 -414
-416 -415
414 415 416
-417 23
-417 -312
-23 312 417
-418 -23
-418 50
23 -50 418
-419 -417
-419 -418
417 418 419
-420 23
-420 -321
-23 321 420
-421 -23
-421 51
23 -51 421
-422 -420
-422 -421
420 421 422
-423 23
-423 -330
-23 330 423
-424 -23
-424 52
23 -52 424
-425 -423
-425 -424
423 424 425
-426 23
-426 -339
-23 339 426
-427 1
-427 80
-1 -80 427
-428 -80
-428 81
80 -81 428
-429 -427
-429 -428
427 428 429
-430 2
-430 80
-2 -80 430
-431 -80
-431 -344
80 344 431
-432 -430
-432 -431
430 431 432
-433 3
-433 80
-3 -80 433
-434 -80
-434 -347
80 347 434
-435 -433
-435 -434
433 434 435
-436 4
-436 80
-4 -80 436
-437 -80
-437 -350
80 350 437
-438 -436
-438 -437
436 437 438
-439 5
-439 80
-5 -80 439
-440 -80
-440 -353
80 353 440
-441 -439
-441 -440
439 440 441
-442 6
-442 80
-6 -80 442
-443 -80
-443 -356
80 356 443
-444 -442
-444 -443
442 443 444
-445 7
-445 80
-7 -80 445
-446 -80
-446 -359
80 359 446
-447 -445
-447 -446
445 446 447
-448 8
-448 80
-8 -80 448
-449 -80
-449 -362
80 362 449
-450 -448
-450 -449
448 449 450
-451 9
-451 80
-9 -80 451
-452 -80
-452 -365
80 365 452
-453 -451
-453 -452
451 452 453
-454 10
-454 80
-10 -80 454
-455 -80
-455 -368
80 368 455
-456 -454
-456 -455
454 455 456
-457 11
-457 80
-11 -80 457
-458 -80
-458 -371
80 371 458
-459 -457
-459 -458
457 458 459
-460 12
-460 80
-12 -80 460
-461 -80
-461 -374
80 374 461
-462 -460
-462 -461
460 461 462
-463 13
-463 80
-13 -80 463
-464 -80
-464 -377
80 377 464
-465 -463
-465 -464
463 464 465
-466 14
-466 80
-14 -80 466
-467 -80
-467 -380
80 380 467
-468 -466
-468 -467
466 467 468
-469 15
-469 80
-15 -80 469
-470 -80
-470 -383
80 383 470
-471 -469
-471 -470
469 470 471
-472 16
-472 80
-16 -80 472
-473 -80
-473 -386
80 386 473
-474 -472
-474 -473
472 473 474
-475 17
-475 80
-17 -80 475
-476 -80
-476 -389
80 389 476
-477 -475
-477 -476
475 476 477
-478 18
-478 80
-18 -80 478
-479 -80
-479 -392
80 392 479
-480 -478
-480 -479
478 479 480
-481 19
-481 80
-19 -80 481
-482 -80
-482 -395
80 395 482
-483 -481
-483 -482
481 482 483
-484 20
-484 80
-20 -80 484
-485 -80
-485 -398
80 398 485
-486 -484
-486 -485
484 485 486
-487 21
-487 80
-21 -80 487
-488 -80
-488 -401
80 401 488
-489 -487
-489 -488
487 488 489
-490 22
-490 80
-22 -80 490
-491 -80
-491 -404
80 404 491
-492 -490
-492 -491
490 491 492
-493 -80
-493 -407
80 407 493
-494 -80
-494 -410
80 410 494
-495 -80
-495 -413
80 413 495
-496 -80
-496 -416
80 416 496
-497 -80
-497 -419
80 419 497
-498 -80
-498 -422
80 422 498
-499 -80
-499 -425
80 425 499
-500 -80
-500 426
80 -426 500
-501 -52
-501 341
52 -341 501
-502 23
-502 -501
-23 501 502
502
